data/solutions/recovery/degenerate/intermediate/binding/degenerate_intermediate_instance21/71.sol
Elapsed time: 0.03
Upper bound: 31452517.0
Planning weighted value: 1.07881045162e+11
C[0]=31452517.0
C[1]=31173251.0
C[2]=30926112.0
C[3]=29963983.0
C[4]=29277840.0
C[5]=28588547.0
C[6]=26934079.0
C[7]=24262058.0
C[8]=24249604.0
C[9]=24170555.0
C[10]=0.0
C[11]=0.0
y[0]=4
y[1]=0
y[2]=6
y[3]=5
y[4]=2
y[5]=8
y[6]=9
y[7]=5
y[8]=7
y[9]=1
y[10]=6
y[11]=3
y[12]=5
y[13]=5
y[14]=2
y[15]=2
y[16]=6
y[17]=5
y[18]=5
y[19]=4
y[20]=7
y[21]=1
y[22]=1
y[23]=5
y[24]=1
y[25]=5
y[26]=4
y[27]=6
y[28]=3
y[29]=3
y[30]=3
y[31]=6
y[32]=5
y[33]=4
y[34]=4
y[35]=7
y[36]=5
y[37]=4
y[38]=8
y[39]=5
y[40]=5
y[41]=7
y[42]=0
y[43]=8
y[44]=0
y[45]=7
y[46]=5
y[47]=6
y[48]=9
y[49]=9
y[50]=0
y[51]=9
y[52]=0
y[53]=3
y[54]=7
y[55]=5
y[56]=2
y[57]=2
y[58]=1
y[59]=5
y[60]=1
y[61]=8
y[62]=5
y[63]=5
y[64]=2
