data/solutions/recovery/degenerate/intermediate/binding/degenerate_intermediate_instance21/71.log

Log started (V12.6.3.0) Sun Apr 22 12:29:11 2018

New value for default parallel thread count: 1

Problem '/tmp/tmpjXTruh.pyomo.lp' read.
Read time = 0.01 sec. (0.58 ticks)

Problem name         : /tmp/tmpjXTruh.pyomo.lp
Objective sense      : Minimize
Variables            :     794  [Nneg: 1,  Binary: 780,  General Integer: 13]
Objective nonzeros   :       1
Linear constraints   :     157  [Less: 77,  Equal: 80]
  Nonzeros           :   41731
  RHS nonzeros       :      66

Variables            : Min LB: 0.000000         Max UB: 1.000000       
Objective nonzeros   : Min   : 1.000000         Max   : 1.000000       
Linear constraints   :
  Nonzeros           : Min   : 1.000000         Max   : 8298339.       
  RHS nonzeros       : Min   : 1.000000         Max   : 1.000000       
Tried aggregator 2 times.
MIP Presolve eliminated 128 rows and 693 columns.
Aggregator did 10 substitutions.
Reduced MIP has 19 rows, 91 columns, and 190 nonzeros.
Reduced MIP has 90 binaries, 1 generals, 0 SOSs, and 0 indicators.
Presolve time = 0.00 sec. (2.82 ticks)
Found incumbent of value 6.9505703e+07 after 0.00 sec. (3.86 ticks)
Probing time = 0.00 sec. (0.09 ticks)
Tried aggregator 1 time.
Reduced MIP has 19 rows, 91 columns, and 190 nonzeros.
Reduced MIP has 90 binaries, 1 generals, 0 SOSs, and 0 indicators.
Presolve time = 0.00 sec. (0.13 ticks)
Probing time = 0.00 sec. (0.09 ticks)
Clique table members: 9.
MIP emphasis: balance optimality and feasibility.
MIP search method: dynamic search.
Parallel mode: none, using 1 thread.
Root relaxation solution time = 0.00 sec. (0.14 ticks)

        Nodes                                         Cuts/
   Node  Left     Objective  IInf  Best Integer    Best Bound    ItCnt     Gap

*     0+    0                       6.95057e+07   2.85885e+07            58.87%
      0     0   2.85885e+07    12   6.95057e+07   2.85885e+07       41   58.87%
*     0+    0                       3.23486e+07   2.85885e+07            11.62%
      0     0   2.86795e+07    15   3.23486e+07       Cuts: 9       80   11.34%
*     0+    0                       3.23003e+07   2.86795e+07            11.21%
      0     0   2.86813e+07    19   3.23003e+07       Cuts: 2       94   11.20%
*     0+    0                       3.22862e+07   2.86813e+07            11.17%
      0     0   2.88208e+07    18   3.22862e+07       Cuts: 2       97   10.73%
*     0+    0                       3.17635e+07   2.88208e+07             9.26%
*     0+    0                       3.15761e+07   2.88208e+07             8.73%
*     0+    0                       3.14536e+07   2.88208e+07             8.37%

Repeating presolve.
Tried aggregator 2 times.
MIP Presolve eliminated 5 rows and 70 columns.
MIP Presolve added 1 rows and 1 columns.
MIP Presolve modified 7 coefficients.
Aggregator did 3 substitutions.
Reduced MIP has 12 rows, 19 columns, and 45 nonzeros.
Reduced MIP has 17 binaries, 2 generals, 0 SOSs, and 0 indicators.
Presolve time = 0.00 sec. (0.15 ticks)
Probing time = 0.00 sec. (0.01 ticks)
Cover probing fixed 0 vars, tightened 2 bounds.
Tried aggregator 1 time.
MIP Presolve eliminated 1 rows and 1 columns.
MIP Presolve added 1 rows and 1 columns.
MIP Presolve modified 12 coefficients.
Reduced MIP has 12 rows, 19 columns, and 44 nonzeros.
Reduced MIP has 17 binaries, 2 generals, 0 SOSs, and 0 indicators.
Presolve time = 0.00 sec. (0.03 ticks)
Represolve time = 0.00 sec. (0.32 ticks)
Probing time = 0.00 sec. (0.01 ticks)
Clique table members: 8.
MIP emphasis: balance optimality and feasibility.
MIP search method: dynamic search.
Parallel mode: none, using 1 thread.
Root relaxation solution time = 0.00 sec. (0.04 ticks)

        Nodes                                         Cuts/
   Node  Left     Objective  IInf  Best Integer    Best Bound    ItCnt     Gap

*     0+    0                       3.14536e+07   3.10918e+07             1.15%
      0     0   3.12895e+07     4   3.14536e+07   3.12895e+07      104    0.52%
*     0+    0                       3.14525e+07   3.12895e+07             0.52%
      0     0        cutoff         3.14525e+07                    104    0.00%
Elapsed time = 0.01 sec. (7.14 ticks, tree = 0.01 MB, solutions = 8)

Gomory fractional cuts applied:  2

Root node processing (before b&c):
  Real time             =    0.01 sec. (7.20 ticks)
Sequential b&c:
  Real time             =    0.00 sec. (0.00 ticks)
                          ------------
Total (root+branch&cut) =    0.01 sec. (7.20 ticks)

Solution pool: 8 solutions saved.

MIP - Integer optimal solution:  Objective =  3.1452517000e+07
Solution time =    0.01 sec.  Iterations = 104  Nodes = 0
Deterministic time = 7.20 ticks  (596.22 ticks/sec)


Incumbent solution written to file '/tmp/tmpm0tjsR.cplex.sol'.
